17	4
14	10	16	14	
0	0	0	0	0	3	2	3	4	
4	0	0	0	3	3	7	16	17	
4	0	0	9	0	3	5	11	13	
1	0	0	0	1	2	6	17	
9	0	8	0	0	3	14	17	17	
225	0	3	0	0	3	9	11	15	
225	1	0	0	0	3	8	9	17	
125	0	0	0	8	3	12	17	17	
150	0	0	1	0	3	10	17	17	
100	0	0	5	0	3	17	17	17	
200	3	0	0	0	1	16	
25	6	0	0	0	3	17	17	17	
1	0	0	2	0	2	15	17	
2	8	0	0	0	1	17	
3	0	3	0	0	2	17	17	
6	0	0	8	0	1	17	
0	0	0	0	0	0	
